Problem:    
Rows:       256
Columns:    89 (72 integer, 72 binary)
Non-zeros:  960
Status:     INTEGER OPTIMAL
Objective:  value = 147.31519 (MINimum)

   No.   Row name        Activity     Lower bound   Upper bound
------ ------------    ------------- ------------- -------------
     1 r.5                   147.315             0               
     2 r.6                   82.2114      -973.079               
     3 r.7                   1147.32             0               
     4 r.8                  -917.789       -960.43               
     5 r.9                   1147.32             0               
     6 r.10                 -962.693      -968.917               
     7 r.11                  147.315             0               
     8 r.12                  97.6002       -956.09               
     9 r.13                  1147.32             0               
    10 r.14                   -902.4      -963.257               
    11 r.15                  147.315             0               
    12 r.16                  97.6002      -936.628               
    13 r.17                  1147.32             0               
    14 r.18                 -939.143       -976.45               
    15 r.19                  147.315             0               
    16 r.20                 -958.353      -964.577               
    17 r.21                  147.315             0               
    18 r.22                  83.1635      -981.196               
    19 r.23                  1147.32             0               
    20 r.24                 -958.372      -968.873               
    21 r.25                  1147.32             0               
    22 r.26                  -995.68       -995.68               
    23 r.27                  147.315             0               
    24 r.28                  -945.31       -945.31               
    25 r.29                  147.315             0               
    26 r.30                  147.315      -950.134               
    27 r.31                  1147.32             0               
    28 r.32                 -852.685      -934.896               
    29 r.33                  1147.32             0               
    30 r.34                 -852.685      -950.285               
    31 r.35                  147.315             0               
    32 r.36                  147.315       -934.79               
    33 r.37                        1             1             = 
    34 r.38                        1             1             = 
    35 r.39                        1             1             = 
    36 r.40                        1             1             = 
    37 r.41                        1             1             = 
    38 r.42                        1             1             = 
    39 r.43                        1             1             = 
    40 r.44                        1             1             = 
    41 r.45                     1001             2               
    42 r.46                    -1001         -1001               
    43 r.47                   1955.1      -968.917               
    44 r.48                     1001             2               
    45 r.49                    -1001         -1001               
    46 r.50                  2015.39       -956.09               
    47 r.51                     1001             2               
    48 r.52                    -1001         -1001               
    49 r.53                  2015.39      -963.257               
    50 r.54                     1001             2               
    51 r.55                    -1001         -1001               
    52 r.56                  2015.39      -936.628               
    53 r.57                     1001             2               
    54 r.58                    -1001         -1001               
    55 r.59                  1978.65       -976.45               
    56 r.60                     1001             2               
    57 r.61                    -1001         -1001               
    58 r.62                  959.436      -964.577               
    59 r.63                     1000             2               
    60 r.64                    -1000         -1001               
    61 r.65                  2000.95      -981.196               
    62 r.66                        2             2               
    63 r.67                       -2         -1001               
    64 r.68                 -40.5833      -968.873               
    65 r.69                  75.9868      -973.079               
    66 r.70                 -924.013       -960.43               
    67 r.71                  1029.55      -973.079               
    68 r.72                  29.5487       -960.43               
    69 r.73                  65.1038      -950.134               
    70 r.74                 -934.896      -934.896               
    71 r.75                  65.1038      -950.134               
    72 r.76                 -934.896      -934.896               
    73 r.77                     1001             2               
    74 r.78                    -1001         -1001               
    75 r.79                   2065.1      -950.285               
    76 r.80                     1001             2               
    77 r.81                    -1001         -1001               
    78 r.82                   2065.1       -934.79               
    79 r.83                     1001             2               
    80 r.84                    -1001         -1001               
    81 r.85                   2044.9       26.9208               
    82 r.86                     1001             2               
    83 r.87                    -1001         -1001               
    84 r.88                  1984.61       39.5698               
    85 r.89                        2             2               
    86 r.90                       -2         -1001               
    87 r.91                 -939.707      -963.257               
    88 r.92                     1000             2               
    89 r.93                    -1000         -1001               
    90 r.94                     2000      -936.628               
    91 r.95                        2             2               
    92 r.96                       -2         -1001               
    93 r.97                  -976.45       -976.45               
    94 r.98                     1000             2               
    95 r.99                    -1000         -1001               
    96 r.100                 944.047      -964.577               
    97 r.101                    1001             2               
    98 r.102                   -1001         -1001               
    99 r.103                 2045.86      -981.196               
   100 r.104                    1001             2               
   101 r.105                   -1001         -1001               
   102 r.106                 1944.03      -968.873               
   103 r.107                -968.917      -968.917               
   104 r.108                 91.3756       -956.09               
   105 r.109                -15.3555      -968.917               
   106 r.110                 1044.94       -956.09               
   107 r.111                    1001             2               
   108 r.112                   -1001         -1001               
   109 r.113                 2110.01      -950.134               
   110 r.114                    1001             2               
   111 r.115                   -1001         -1001               
   112 r.116                 2049.72      -934.896               
   113 r.117                -889.992      -950.285               
   114 r.118                 110.008       -934.79               
   115 r.119                -950.285      -950.285               
   116 r.120                  49.715       -934.79               
   117 r.121                    1001             2               
   118 r.122                   -1001         -1001               
   119 r.123                 1984.61       26.9208               
   120 r.124                    1001             2               
   121 r.125                   -1001         -1001               
   122 r.126                 1984.61       39.5698               
   123 r.127                       2             2               
   124 r.128                      -2         -1001               
   125 r.129                 939.707       31.0826               
   126 r.130                    1000             2               
   127 r.131                   -1000         -1001               
   128 r.132                    2000       43.9104               
   129 r.133                -963.257      -963.257               
   130 r.134                 36.7434      -936.628               
   131 r.135                  55.953      -963.257               
   132 r.136                 1055.95      -936.628               
   133 r.137                    1001             2               
   134 r.138                   -1001         -1001               
   135 r.139                 1985.56      -981.196               
   136 r.140                    1001             2               
   137 r.141                   -1001         -1001               
   138 r.142                 1944.03      -968.873               
   139 r.143                -908.624      -963.257               
   140 r.144                 91.3756      -936.628               
   141 r.145                 44.9375      -963.257               
   142 r.146                 1044.94      -936.628               
   143 r.147                    1001             2               
   144 r.148                   -1001         -1001               
   145 r.149                 2049.72      -950.134               
   146 r.150                    1001             2               
   147 r.151                   -1001         -1001               
   148 r.152                 2049.72      -934.896               
   149 r.153                -950.285      -950.285               
   150 r.154                  49.715       -934.79               
   151 r.155                -950.285      -950.285               
   152 r.156                  49.715       -934.79               
   153 r.157                    1001             2               
   154 r.158                   -1001         -1001               
   155 r.159                 2021.35       26.9208               
   156 r.160                    1001             2               
   157 r.161                   -1001         -1001               
   158 r.162                 3040.56       39.5698               
   159 r.163                       2             2               
   160 r.164                      -2         -1001               
   161 r.165                  976.45       31.0826               
   162 r.166                    1000             2               
   163 r.167                   -1000         -1001               
   164 r.168                 3055.95       43.9104               
   165 r.169                    1001             2               
   166 r.170                   -1001         -1001               
   167 r.171                 2022.31      -981.196               
   168 r.172                    1001             2               
   169 r.173                   -1001         -1001               
   170 r.174                 2999.98      -968.873               
   171 r.175                -945.368       -976.45               
   172 r.176                -964.577      -964.577               
   173 r.177                 8.19406       -976.45               
   174 r.178                -11.0155      -964.577               
   175 r.179                    1001             2               
   176 r.180                   -1001         -1001               
   177 r.181                 2086.46      -950.134               
   178 r.182                    1001             2               
   179 r.183                   -1001         -1001               
   180 r.184                 3105.67      -934.896               
   181 r.185                -913.542      -950.285               
   182 r.186                 86.4584       -934.79               
   183 r.187                 105.668      -950.285               
   184 r.188                 1105.67       -934.79               
   185 r.189                    1000             2               
   186 r.190                   -1000         -1001               
   187 r.191                    2000       26.9208               
   188 r.192                       2             2               
   189 r.193                      -2         -1001               
   190 r.194                 39.5698       39.5698               
   191 r.195                    1001             2               
   192 r.196                   -1001         -1001               
   193 r.197                  1955.1       31.0826               
   194 r.198                    1001             2               
   195 r.199                   -1001         -1001               
   196 r.200                 2054.96       43.9104               
   197 r.201                    1001             2               
   198 r.202                   -1001         -1001               
   199 r.203                 2015.39       36.7434               
   200 r.204                    1001             2               
   201 r.205                   -1001         -1001               
   202 r.206                 2054.96       63.3722               
   203 r.207                    1001             2               
   204 r.208                   -1001         -1001               
   205 r.209                 1978.65       23.5496               
   206 r.210                    1001             2               
   207 r.211                   -1001         -1001               
   208 r.212                 999.006       35.4226               
   209 r.213                 76.9389      -981.196               
   210 r.214                -964.597      -968.873               
   211 r.215                  1030.5      -981.196               
   212 r.216                -11.0347      -968.873               
   213 r.217                 65.1038      -950.134               
   214 r.218                -934.896      -934.896               
   215 r.219                 104.674      -950.134               
   216 r.220                -895.326      -934.896               
   217 r.221                -934.896      -950.285               
   218 r.222                 65.1038       -934.79               
   219 r.223                -895.326      -950.285               
   220 r.224                 104.674       -934.79               
   221 r.225                    1001             2               
   222 r.226                   -1001         -1001               
   223 r.227                 1889.99       31.0826               
   224 r.228                    1001             2               
   225 r.229                   -1001         -1001               
   226 r.230                 1950.28       43.9104               
   227 r.231                    1001             2               
   228 r.232                   -1001         -1001               
   229 r.233                 1950.28       36.7434               
   230 r.234                    1001             2               
   231 r.235                   -1001         -1001               
   232 r.236                 1950.28       63.3722               
   233 r.237                    1001             2               
   234 r.238                   -1001         -1001               
   235 r.239                 1913.54       23.5496               
   236 r.240                    1001             2               
   237 r.241                   -1001         -1001               
   238 r.242                 894.332       35.4226               
   239 r.243                    1001             2               
   240 r.244                   -1001         -1001               
   241 r.245                    2000      -950.285               
   242 r.246                    1001             2               
   243 r.247                   -1001         -1001               
   244 r.248                    2000       -934.79               
   245 r.249                    1001             2               
   246 r.250                   -1001         -1001               
   247 r.251                  1934.9       26.9208               
   248 r.252                    1001             2               
   249 r.253                   -1001         -1001               
   250 r.254                  1934.9       39.5698               
   251 r.255                    1001             2               
   252 r.256                   -1001         -1001               
   253 r.257                    2000       49.8658               
   254 r.258                    1001             2               
   255 r.259                   -1001         -1001               
   256 r.260                    2000       65.1038               

   No. Column name       Activity     Lower bound   Upper bound
------ ------------    ------------- ------------- -------------
     1 tt                    147.315             0               
     2 s_1_1        *              0             0             1 
     3 t_1_1                 65.1038             0               
     4 s_1_7        *              0             0             1 
     5 s_2_1        *              1             0             1 
     6 t_2_1                 65.1038             0               
     7 s_2_7        *              1             0             1 
     8 s_1_2        *              1             0             1 
     9 t_1_2                 110.008             0               
    10 s_1_8        *              1             0             1 
    11 s_2_2        *              0             0             1 
    12 t_2_2                  49.715             0               
    13 s_2_8        *              0             0             1 
    14 s_1_3        *              1             0             1 
    15 t_1_3                  49.715             0               
    16 s_2_3        *              0             0             1 
    17 t_2_3                  49.715             0               
    18 s_1_4        *              1             0             1 
    19 t_1_4                 86.4584             0               
    20 s_2_4        *              0             0             1 
    21 t_2_4                 1105.67             0               
    22 s_1_5        *              0             0             1 
    23 t_1_5                 65.1038             0               
    24 s_2_5        *              1             0             1 
    25 t_2_5                 104.674             0               
    26 s_1_6        *              1             0             1 
    27 t_1_6                 141.091             0               
    28 s_2_6        *              0             0             1 
    29 t_2_6                 1094.65             0               
    30 t_1_7                       0             0               
    31 t_2_7                       0             0               
    32 t_1_8                       0             0               
    33 t_2_8                       0             0               
    34 r_1_1_2      *              1             0             1 
    35 u_1_1_2      *              0             0             1 
    36 r_2_1_2      *              1             0             1 
    37 u_2_1_2      *              0             0             1 
    38 r_1_1_3      *              1             0             1 
    39 u_1_1_3      *              0             0             1 
    40 r_2_1_3      *              1             0             1 
    41 u_2_1_3      *              0             0             1 
    42 r_1_1_4      *              1             0             1 
    43 u_1_1_4      *              0             0             1 
    44 r_2_1_4      *              1             0             1 
    45 u_2_1_4      *              0             0             1 
    46 r_1_1_5      *              1             0             1 
    47 u_1_1_5      *              0             0             1 
    48 r_2_1_5      *              0             0             1 
    49 u_2_1_5      *              0             0             1 
    50 r_1_1_8      *              1             0             1 
    51 u_1_1_8      *              0             0             1 
    52 r_2_1_8      *              1             0             1 
    53 u_2_1_8      *              0             0             1 
    54 r_1_2_3      *              0             0             1 
    55 u_1_2_3      *              1             0             1 
    56 r_2_2_3      *              1             0             1 
    57 u_2_2_3      *              0             0             1 
    58 r_1_2_4      *              0             0             1 
    59 u_1_2_4      *              1             0             1 
    60 r_2_2_4      *              1             0             1 
    61 u_2_2_4      *              0             0             1 
    62 r_1_2_5      *              1             0             1 
    63 u_1_2_5      *              0             0             1 
    64 r_2_2_5      *              1             0             1 
    65 u_2_2_5      *              0             0             1 
    66 r_1_2_7      *              1             0             1 
    67 u_1_2_7      *              0             0             1 
    68 r_2_2_7      *              1             0             1 
    69 u_2_2_7      *              0             0             1 
    70 r_1_3_5      *              1             0             1 
    71 u_1_3_5      *              0             0             1 
    72 r_2_3_5      *              1             0             1 
    73 u_2_3_5      *              0             0             1 
    74 r_1_3_7      *              1             0             1 
    75 u_1_3_7      *              0             0             1 
    76 r_2_3_7      *              1             0             1 
    77 u_2_3_7      *              0             0             1 
    78 r_1_4_5      *              1             0             1 
    79 u_1_4_5      *              0             0             1 
    80 r_2_4_5      *              1             0             1 
    81 u_2_4_5      *              0             0             1 
    82 r_1_4_7      *              1             0             1 
    83 u_1_4_7      *              0             0             1 
    84 r_2_4_7      *              1             0             1 
    85 u_2_4_7      *              0             0             1 
    86 r_1_7_8      *              1             0             1 
    87 u_1_7_8      *              0             0             1 
    88 r_2_7_8      *              1             0             1 
    89 u_2_7_8      *              0             0             1 

Integer feasibility conditions:

KKT.PE: max.abs.err = 4.55e-13 on row 158
        max.rel.err = 1.08e-16 on row 10
        High quality

KKT.PB: max.abs.err = 3.41e-13 on row 93
        max.rel.err = 3.52e-16 on row 103
        High quality

End of output
